WARNING: for repeatability, setting FPU to use double precision
============================[ Problem Statistics ]=============================
|                                                                             |
|  Number of variables:           836                                         |
|  Number of clauses:           17015                                         |
|  Parse time:                   0.00 s                                       |
|                                                                             |
c ============================[ Search Statistics ]==============================
c | Conflicts |          ORIGINAL         |          LEARNT          | Progress |
c |           |    Vars  Clauses Literals |    Limit  Clauses Lit/Cl |          |
c ===============================================================================
c Switched to VSIDS.
c Switched to LRB.
c Switched to VSIDS.
c Switched to LRB.
c Switched to VSIDS.
c Switched to LRB.
c Switched to VSIDS.
c Switched to LRB.
c Switched to VSIDS.
c Switched to LRB.
c Switched to VSIDS.
c Switched to LRB.
c Switched to VSIDS.
c Switched to LRB.
c Switched to VSIDS.
c Switched to LRB.
c Switched to VSIDS.
c Switched to LRB.
c ===============================================================================
restarts                  : 8943
conflicts                 : 7057636        (4133 /sec)
decisions                 : 8349531        (0.00 % random) (4890 /sec)
propagations              : 1538427221     (900928 /sec)
conflict literals         : 271966114      (41.10 % deleted)

conflicts w/ DIP found    : 4387397        (62.17 % of conflicts)
conflicts w/ dangerous DIP: 0              (0.00 % of conflicts)
conflicts w/ DIP-learning : 49871          (0.71 % of conflicts)
decisions on ext vars     : 1771           (0.02 % of decisions)
total ext vars            : 25692       
tried delete ext vars     : 25629       
deleted ext vars          : 25371       
max ext vars              : 2239        

Memory used               : 108.00 MB
CPU time                  : 1707.6 s
DIP computation time      : 44.8931 s (2.63 % of total time)
ER_sel time               : 7.27138 s
ER_add time               : 0.080372 s
ER_delC time              : 0 s
ER_delV time              : 0.557852 s
ER_sub time               : 8.76149 s
ER_stat time              : 0 s

UNSATISFIABLE
